% File represents an instance of a Composite Structure problem to be solved by a CP framework
% Created on 2025-03-26 10:41:57.273
T = 58;
n = 36;
m = 60;
edges = [(1, 2),
(7, 8),
(13, 14),
(19, 20),
(26, 25),
(32, 31),
(2, 3),
(9, 8),
(15, 14),
(21, 20),
(26, 27),
(32, 33),
(4, 3),
(9, 10),
(15, 16),
(22, 21),
(28, 27),
(34, 33),
(5, 4),
(11, 10),
(17, 16),
(23, 22),
(29, 28),
(35, 34),
(6, 5),
(12, 11),
(17, 18),
(24, 23),
(30, 29),
(36, 35),
(1, 7),
(13, 7),
(13, 19),
(19, 25),
(25, 31),
(2, 8),
(14, 8),
(14, 20),
(26, 20),
(26, 32),
(9, 3),
(15, 9),
(15, 21),
(21, 27),
(27, 33),
(4, 10),
(16, 10),
(16, 22),
(22, 28),
(34, 28),
(5, 11),
(17, 11),
(17, 23),
(23, 29),
(35, 29),
(6, 12),
(12, 18),
(24, 18),
(24, 30),
(36, 30)];
counts = [|16, 6, 16, 14,
|14, 6, 14, 14,
|14, 4, 14, 14,
|14, 6, 14, 16,
|16, 6, 16, 18,
|16, 8, 16, 18,
|14, 6, 14, 14,
|14, 6, 14, 12,
|14, 6, 14, 16,
|14, 4, 14, 14,
|16, 6, 16, 14,
|16, 6, 16, 16,
|16, 6, 16, 14,
|14, 6, 14, 14,
|14, 8, 14, 16,
|14, 8, 14, 14,
|16, 10, 16, 14,
|16, 6, 16, 14,
|16, 4, 16, 12,
|14, 4, 14, 10,
|14, 6, 14, 12,
|14, 6, 14, 14,
|14, 10, 14, 14,
|16, 10, 16, 16,
|16, 2, 16, 12,
|16, 4, 16, 12,
|14, 4, 14, 12,
|14, 6, 14, 12,
|14, 10, 14, 12,
|14, 10, 14, 14,
|16, 2, 16, 8,
|16, 2, 16, 12,
|14, 2, 14, 12,
|14, 8, 14, 12,
|14, 12, 14, 14,
|14, 14, 14, 16|];
